NAME : DyVMejorado
COMMENT : Comentario 
TYPE : TSP
DIMENSION : 52
EDGE_WEIGHT_TYPE : EUC_2D
NODE_COORD_SECTION
1 1530.0 5.0
2 1170.0 65.0
3 660.0 180.0
4 25.0 185.0
5 1465.0 200.0
6 25.0 230.0
7 1215.0 245.0
8 1740.0 245.0
9 410.0 250.0
10 95.0 260.0
11 1320.0 315.0
12 595.0 360.0
13 560.0 365.0
14 725.0 370.0
15 1250.0 400.0
16 480.0 415.0
17 300.0 465.0
18 830.0 485.0
19 700.0 500.0
20 420.0 555.0
21 565.0 575.0
22 1220.0 580.0
23 975.0 580.0
24 700.0 580.0
25 520.0 585.0
26 685.0 595.0
27 770.0 610.0
28 685.0 610.0
29 830.0 610.0
30 1605.0 620.0
31 605.0 625.0
32 835.0 625.0
33 415.0 635.0
34 720.0 635.0
35 795.0 645.0
36 760.0 650.0
37 845.0 655.0
38 880.0 660.0
39 575.0 665.0
40 145.0 665.0
41 845.0 680.0
42 945.0 685.0
43 1340.0 725.0
44 345.0 750.0
45 555.0 815.0
46 510.0 875.0
47 875.0 920.0
48 475.0 960.0
49 525.0 1000.0
50 650.0 1130.0
51 1150.0 1160.0
52 580.0 1175.0